
  32    4
  10   10   10   10

   0   0   0   0   0  10 2 4 6 7 9 14 18 29 30 31 
   5   0   1   1   1   7 26 25 17 16 12 11 3 
   8   0   2   3   3   3 27 10 5 
   5   1   0   5   7   6 23 21 20 19 15 11 
   4   3   0   4   3   4 23 20 19 8 
   5   4   5   0   3   4 26 21 12 10 
   7   4   2   4   0   4 28 27 16 13 
   5   2   6   4   0   3 24 21 15 
   9   2   6   5   0   3 25 20 16 
   8   1   0   5   4   2 23 20 
   3   4   2   3   0   2 24 22 
   6   4   0   5   7   2 20 19 
   5   4   3   0   2   2 25 19 
   7   9   6   4   0   2 26 21 
   5   2   0   3   7   1 22 
   3   3   6   7   0   1 19 
   1   6   0   4   5   1 19 
   5   3   7   0   3   1 28 
   4   4   0   7   2   1 32
   2   7   7   0   8   1 32
   4   6   7   0   3   1 32
   9   8   0   4   1   1 32
   5   2   1   0   3   1 32
  10   2   3   2   0   1 32
   1   3   1   0   4   1 32
   1   6   3   1   0   1 32
   1   3   0   4   5   1 32
  10   2   5   4   0   1 32
   1   6   3   0   2   1 32
   4   7   0   3   5   1 32
   5   0   4   6   6   1 32
   0   0   0   0   0   0 
